Welcome to the CBC MILP Solver
Version: Devel (unstable)
Build Date: Feb  6 2022
command line - -import /home/danilo/psp-janniele/J30/j3060/j3060_7.lp -timeM elapsed -seconds 10800 -solve -quit (default strategy 1)
seconds was changed from 1e+08 to 10800
Continuous objective value is 0 - 0.014938 seconds
Cgl0002I 30 variables fixed
Cgl0003I 0 fixed, 0 tightened bounds, 10 strengthened rows, 0 substitutions
Cgl0003I 0 fixed, 0 tightened bounds, 10 strengthened rows, 0 substitutions
Cgl0003I 0 fixed, 0 tightened bounds, 8 strengthened rows, 0 substitutions
Cgl0003I 0 fixed, 0 tightened bounds, 6 strengthened rows, 0 substitutions
Cgl0003I 0 fixed, 0 tightened bounds, 6 strengthened rows, 0 substitutions
Cgl0003I 0 fixed, 0 tightened bounds, 5 strengthened rows, 0 substitutions
Cgl0003I 0 fixed, 0 tightened bounds, 5 strengthened rows, 0 substitutions
Cgl0003I 0 fixed, 0 tightened bounds, 4 strengthened rows, 0 substitutions
Cgl0003I 0 fixed, 0 tightened bounds, 4 strengthened rows, 0 substitutions
Cgl0004I processed model has 191 rows, 301 columns (301 integer (301 of which binary)) and 3248 elements
Coin3009W Conflict graph built in 0.006 seconds, density: 1.655%
Cgl0015I Clique Strengthening extended 0 cliques, 0 were dominated
Cbc0045I No integer variables out of 301 objects (301 integer) have costs
Cbc0045I branch on satisfied N create fake objective Y random cost Y
Cbc0038I Initial state - 20 integers unsatisfied sum - 6.95
Cbc0038I Pass   1: suminf.    3.55000 (11) obj. 0 iterations 8
Cbc0038I Pass   2: suminf.    3.00000 (6) obj. 0 iterations 13
Cbc0038I Pass   3: suminf.    1.16667 (4) obj. 0 iterations 8
Cbc0038I Pass   4: suminf.    1.06667 (4) obj. 0 iterations 6
Cbc0038I Pass   5: suminf.    2.00000 (4) obj. 0 iterations 4
Cbc0038I Pass   6: suminf.    1.16667 (4) obj. 0 iterations 4
Cbc0038I Pass   7: suminf.    3.30000 (13) obj. 0 iterations 36
Cbc0038I Pass   8: suminf.    2.23333 (8) obj. 0 iterations 18
Cbc0038I Pass   9: suminf.    0.66667 (4) obj. 0 iterations 7
Cbc0038I Pass  10: suminf.    1.33333 (4) obj. 0 iterations 4
Cbc0038I Pass  11: suminf.    4.08333 (13) obj. 0 iterations 29
Cbc0038I Pass  12: suminf.    1.33333 (6) obj. 0 iterations 18
Cbc0038I Pass  13: suminf.    1.23333 (6) obj. 0 iterations 4
Cbc0038I Pass  14: suminf.    2.00000 (6) obj. 0 iterations 7
Cbc0038I Pass  15: suminf.    1.50000 (6) obj. 0 iterations 6
Cbc0038I Pass  16: suminf.    1.40000 (6) obj. 0 iterations 1
Cbc0038I Pass  17: suminf.    1.83333 (6) obj. 0 iterations 7
Cbc0038I Pass  18: suminf.    1.33333 (6) obj. 0 iterations 4
Cbc0038I Pass  19: suminf.    1.23333 (6) obj. 0 iterations 2
Cbc0038I Pass  20: suminf.    2.00000 (6) obj. 0 iterations 5
Cbc0038I Pass  21: suminf.    1.50000 (6) obj. 0 iterations 6
Cbc0038I Pass  22: suminf.    1.40000 (6) obj. 0 iterations 1
Cbc0038I Pass  23: suminf.    1.83333 (6) obj. 0 iterations 5
Cbc0038I Pass  24: suminf.    1.33333 (6) obj. 0 iterations 4
Cbc0038I Pass  25: suminf.    1.23333 (6) obj. 0 iterations 2
Cbc0038I Pass  26: suminf.    2.00000 (6) obj. 0 iterations 7
Cbc0038I Pass  27: suminf.    1.50000 (6) obj. 0 iterations 5
Cbc0038I Pass  28: suminf.    1.40000 (6) obj. 0 iterations 1
Cbc0038I Pass  29: suminf.    1.83333 (6) obj. 0 iterations 8
Cbc0038I Pass  30: suminf.    1.33333 (6) obj. 0 iterations 4
Cbc0038I Pass  31: suminf.    1.23333 (6) obj. 0 iterations 3
Cbc0038I Pass  32: suminf.    2.00000 (6) obj. 0 iterations 7
Cbc0038I Pass  33: suminf.    1.50000 (6) obj. 0 iterations 6
Cbc0038I Pass  34: suminf.    1.40000 (6) obj. 0 iterations 1
Cbc0038I Pass  35: suminf.    1.83333 (6) obj. 0 iterations 7
Cbc0038I Pass  36: suminf.    1.33333 (6) obj. 0 iterations 4
Cbc0038I Pass  37: suminf.    1.23333 (6) obj. 0 iterations 2
Cbc0038I Pass  38: suminf.    2.00000 (6) obj. 0 iterations 5
Cbc0038I Pass  39: suminf.    1.50000 (6) obj. 0 iterations 6
Cbc0038I Pass  40: suminf.    1.40000 (6) obj. 0 iterations 1
Cbc0038I Pass  41: suminf.    1.83333 (6) obj. 0 iterations 5
Cbc0038I Pass  42: suminf.    1.33333 (6) obj. 0 iterations 4
Cbc0038I Pass  43: suminf.    1.23333 (6) obj. 0 iterations 2
Cbc0038I Pass  44: suminf.    2.00000 (6) obj. 0 iterations 7
Cbc0038I Pass  45: suminf.    1.50000 (6) obj. 0 iterations 5
Cbc0038I Pass  46: suminf.    1.40000 (6) obj. 0 iterations 1
Cbc0038I Pass  47: suminf.    1.83333 (6) obj. 0 iterations 8
Cbc0038I Pass  48: suminf.    1.33333 (6) obj. 0 iterations 4
Cbc0038I Pass  49: suminf.    1.23333 (6) obj. 0 iterations 3
Cbc0038I Pass  50: suminf.    2.00000 (6) obj. 0 iterations 5
Cbc0038I Pass  51: suminf.    1.50000 (6) obj. 0 iterations 5
Cbc0038I Pass  52: suminf.    1.40000 (6) obj. 0 iterations 1
Cbc0038I Pass  53: suminf.    1.83333 (6) obj. 0 iterations 7
Cbc0038I Pass  54: suminf.    1.33333 (6) obj. 0 iterations 4
Cbc0038I Pass  55: suminf.    1.23333 (6) obj. 0 iterations 2
Cbc0038I Pass  56: suminf.    2.00000 (6) obj. 0 iterations 8
Cbc0038I Pass  57: suminf.    1.50000 (6) obj. 0 iterations 5
Cbc0038I Pass  58: suminf.    1.40000 (6) obj. 0 iterations 2
Cbc0038I Pass  59: suminf.    1.83333 (6) obj. 0 iterations 6
Cbc0038I Pass  60: suminf.    1.33333 (6) obj. 0 iterations 11
Cbc0038I Pass  61: suminf.    1.23333 (6) obj. 0 iterations 1
Cbc0038I Pass  62: suminf.    2.00000 (6) obj. 0 iterations 11
Cbc0038I Pass  63: suminf.    1.50000 (6) obj. 0 iterations 10
Cbc0038I Pass  64: suminf.    1.40000 (6) obj. 0 iterations 1
Cbc0038I Pass  65: suminf.    1.83333 (6) obj. 0 iterations 7
Cbc0038I Pass  66: suminf.    1.33333 (6) obj. 0 iterations 10
Cbc0038I Pass  67: suminf.    1.23333 (6) obj. 0 iterations 1
Cbc0038I Pass  68: suminf.    2.00000 (6) obj. 0 iterations 7
Cbc0038I Pass  69: suminf.    1.50000 (6) obj. 0 iterations 9
Cbc0038I Pass  70: suminf.    1.40000 (6) obj. 0 iterations 1
Cbc0038I Pass  71: suminf.    1.83333 (6) obj. 0 iterations 8
Cbc0038I Pass  72: suminf.    1.33333 (6) obj. 0 iterations 7
Cbc0038I Pass  73: suminf.    1.23333 (6) obj. 0 iterations 1
Cbc0038I Pass  74: suminf.    2.00000 (6) obj. 0 iterations 6
Cbc0038I Pass  75: suminf.    1.50000 (6) obj. 0 iterations 9
Cbc0038I Pass  76: suminf.    1.40000 (6) obj. 0 iterations 1
Cbc0038I Pass  77: suminf.    1.83333 (6) obj. 0 iterations 8
Cbc0038I Pass  78: suminf.    1.33333 (6) obj. 0 iterations 7
Cbc0038I Pass  79: suminf.    1.23333 (6) obj. 0 iterations 1
Cbc0038I Pass  80: suminf.    2.00000 (6) obj. 0 iterations 6
Cbc0038I Pass  81: suminf.    1.50000 (6) obj. 0 iterations 11
Cbc0038I Pass  82: suminf.    1.40000 (6) obj. 0 iterations 1
Cbc0038I Pass  83: suminf.    1.83333 (6) obj. 0 iterations 9
Cbc0038I Pass  84: suminf.    1.33333 (6) obj. 0 iterations 11
Cbc0038I Pass  85: suminf.    1.23333 (6) obj. 0 iterations 1
Cbc0038I Pass  86: suminf.    2.00000 (6) obj. 0 iterations 11
Cbc0038I Pass  87: suminf.    1.50000 (6) obj. 0 iterations 10
Cbc0038I Pass  88: suminf.    1.40000 (6) obj. 0 iterations 1
Cbc0038I Pass  89: suminf.    1.83333 (6) obj. 0 iterations 8
Cbc0038I Pass  90: suminf.    1.33333 (6) obj. 0 iterations 7
Cbc0038I Pass  91: suminf.    1.23333 (6) obj. 0 iterations 1
Cbc0038I Pass  92: suminf.    2.00000 (6) obj. 0 iterations 6
Cbc0038I Pass  93: suminf.    1.50000 (6) obj. 0 iterations 11
Cbc0038I Pass  94: suminf.    1.40000 (6) obj. 0 iterations 1
Cbc0038I Pass  95: suminf.    1.83333 (6) obj. 0 iterations 9
Cbc0038I Pass  96: suminf.    1.33333 (6) obj. 0 iterations 11
Cbc0038I Pass  97: suminf.    1.23333 (6) obj. 0 iterations 1
Cbc0038I Pass  98: suminf.    2.00000 (6) obj. 0 iterations 9
Cbc0038I Pass  99: suminf.    1.50000 (6) obj. 0 iterations 9
Cbc0038I Pass 100: suminf.    7.71667 (20) obj. 0 iterations 39
Cbc0038I No solution found this major pass
Cbc0038I Before mini branch and bound, 222 integers at bound fixed and 0 continuous
Cbc0038I Full problem 191 rows 301 columns, reduced to 75 rows 54 columns
Cbc0038I Mini branch and bound improved solution from 1.79769e+308 to 0 (0.83 seconds)
Cbc0038I After 0.83 seconds - Feasibility pump exiting with objective of 0 - took 0.27 seconds
Cbc0012I Integer solution of 0 found by feasibility pump after 0 iterations and 0 nodes (0.83 seconds)
Cbc0001I Search completed - best objective 0, took 0 iterations and 0 nodes (0.83 seconds)
Cbc0035I Maximum depth 0, 0 variables fixed on reduced cost
Cuts at root node changed objective from 0 to 0
Probing was tried 0 times and created 0 cuts of which 0 were active after adding rounds of cuts (0 seconds)
Gomory was tried 0 times and created 0 cuts of which 0 were active after adding rounds of cuts (0 seconds)
Knapsack was tried 0 times and created 0 cuts of which 0 were active after adding rounds of cuts (0 seconds)
Clique was tried 0 times and created 0 cuts of which 0 were active after adding rounds of cuts (0 seconds)
OddWheel was tried 0 times and created 0 cuts of which 0 were active after adding rounds of cuts (0 seconds)
MixedIntegerRounding2 was tried 0 times and created 0 cuts of which 0 were active after adding rounds of cuts (0 seconds)
FlowCover was tried 0 times and created 0 cuts of which 0 were active after adding rounds of cuts (0 seconds)
TwoMirCuts was tried 0 times and created 0 cuts of which 0 were active after adding rounds of cuts (0 seconds)
ZeroHalf was tried 0 times and created 0 cuts of which 0 were active after adding rounds of cuts (0 seconds)

Result - Optimal solution found
Objective value:                0
Enumerated nodes:               0
Total iterations:               0
Time (CPU seconds):             0.812993
Time (Wallclock seconds):       0.857375
Total time (CPU seconds):       0.82058   (Wallclock seconds):       0.865185
